 param n:=7;
 param me:=0;
 param mg:=7;
 param ml:=0;
 param c :=
 1 -1
 2 -1
 3 -1
 4 -1
 5 -1
 6 -1
 7 -1;
 param bg :=
 1 2
 2 2
 3 2
 4 0
 5 0
 6 0
 7 0;
 param ag: 1 2 3 4 5 6 7:=
 1 1 1 1 1 0 0 1
 2 0 1 0 1 1 0 1
 3 0 0 1 0 1 1 0
 4 1 0 0 -1 0 0 0
 5 0 0 0 0 -1 1 0
 6 0 0 -1 0 0 1 0
 7 0 0 0 1 0 0 -1;